
  32    1
  10

   0   0   5 2 3 4 5 6 
   1   1   4 10 9 8 7 
   8   2   3 10 8 7 
   1   1   3 10 9 7 
   3   5   3 12 10 7 
  10   1   2 10 8 
   6   1   2 15 11 
   7   2   2 12 11 
   6   1   2 12 11 
   4   2   1 11 
   8   4   3 22 14 13 
   4   1   2 16 13 
   5   2   5 25 21 19 18 17 
   4   1   4 25 21 20 16 
   4   3   4 31 21 18 17 
   5   1   2 19 18 
   5   5   3 26 23 20 
   4   1   2 24 23 
   3   3   3 31 28 26 
   8   3   2 30 24 
   6   2   2 30 26 
   7   2   1 23 
   4   3   2 30 27 
   4   2   2 28 27 
   1   1   1 26 
   1   1   1 27 
   8   2   1 29 
  10   2   1 29 
   1   1   1 32
   9   3   1 32
   7   1   1 32
   0   0   0 
